bestever    1685    in generation 0
[12, 16, 9, 18, 10, 7, 13, 19, 20, 1, 2, 15, 11, 5, 6, 14, 3, 17, 8, 4, 12, 16, 9, 18, 10, 7, 13, 19, 20, 1, 2, 15, 11, 5, 6, 14, 3, 17, 8, 4, 12, 16, 9, 18, 10, 7, 13, 19, 20, 1, 2, 15, 11, 5, 6, 14, 3, 17, 8, 4, 12, 16, 9, 18, 10, 7, 13, 19, 20, 1, 2, 15, 11, 5, 6, 14, 3, 17, 8, 4, 12, 16, 9, 18, 10, 7, 13, 19, 20, 1, 2, 15, 11, 5, 6, 14, 3, 17, 8, 4, 12, 16, 9, 18, 10, 7, 13, 19, 20, 1, 2, 15, 11, 5, 6, 14, 3, 17, 8, 4, 12, 16, 9, 18, 10, 7, 13, 19, 20, 1, 2, 15, 11, 5, 6, 14, 3, 17, 8, 4, 12, 16, 9, 18, 10, 7, 13, 19, 20, 1, 2, 15, 11, 5, 6, 14, 3, 17, 8, 4, 12, 16, 9, 18, 10, 7, 13, 19, 20, 1, 2, 15, 11, 5, 6, 14, 3, 17, 8, 4, 12, 16, 9, 18, 10, 7, 13, 19, 20, 1, 2, 15, 11, 5, 6, 14, 3, 17, 8, 4]
bestever    1655    in generation 104
[12, 16, 9, 18, 13, 10, 7, 19, 20, 1, 2, 15, 11, 5, 6, 14, 3, 17, 8, 4, 12, 16, 9, 18, 13, 10, 7, 19, 20, 1, 2, 15, 11, 5, 6, 14, 3, 17, 8, 4, 12, 16, 9, 18, 13, 10, 7, 19, 20, 1, 2, 15, 11, 5, 6, 14, 3, 17, 8, 4, 12, 16, 9, 18, 13, 10, 7, 19, 20, 1, 2, 15, 11, 5, 6, 14, 3, 17, 8, 4, 12, 16, 9, 18, 13, 10, 7, 19, 20, 1, 2, 15, 11, 5, 6, 14, 3, 17, 8, 4, 12, 16, 9, 18, 13, 10, 7, 19, 20, 1, 2, 15, 11, 5, 6, 14, 3, 17, 8, 4, 12, 16, 9, 18, 13, 10, 7, 19, 20, 1, 2, 15, 11, 5, 6, 14, 3, 17, 8, 4, 12, 16, 9, 18, 13, 10, 7, 19, 20, 1, 2, 15, 11, 5, 6, 14, 3, 17, 8, 4, 12, 16, 9, 18, 13, 10, 7, 19, 20, 1, 2, 15, 11, 5, 6, 14, 3, 17, 8, 4, 12, 16, 9, 18, 13, 10, 7, 19, 20, 1, 2, 15, 11, 5, 6, 14, 3, 17, 8, 4]
bestever    1630    in generation 207
[12, 16, 9, 18, 13, 10, 7, 19, 20, 1, 2, 15, 11, 5, 6, 14, 17, 8, 3, 4, 12, 16, 9, 18, 13, 10, 7, 19, 20, 1, 2, 15, 11, 5, 6, 14, 17, 8, 3, 4, 12, 16, 9, 18, 13, 10, 7, 19, 20, 1, 2, 15, 11, 5, 6, 14, 17, 8, 3, 4, 12, 16, 9, 18, 13, 10, 7, 19, 20, 1, 2, 15, 11, 5, 6, 14, 17, 8, 3, 4, 12, 16, 9, 18, 13, 10, 7, 19, 20, 1, 2, 15, 11, 5, 6, 14, 17, 8, 3, 4, 12, 16, 9, 18, 13, 10, 7, 19, 20, 1, 2, 15, 11, 5, 6, 14, 17, 8, 3, 4, 12, 16, 9, 18, 13, 10, 7, 19, 20, 1, 2, 15, 11, 5, 6, 14, 17, 8, 3, 4, 12, 16, 9, 18, 13, 10, 7, 19, 20, 1, 2, 15, 11, 5, 6, 14, 17, 8, 3, 4, 12, 16, 9, 18, 13, 10, 7, 19, 20, 1, 2, 15, 11, 5, 6, 14, 17, 8, 3, 4, 12, 16, 9, 18, 13, 10, 7, 19, 20, 1, 2, 15, 11, 5, 6, 14, 17, 8, 3, 4]
bestever    1623    in generation 310
[12, 16, 9, 18, 13, 10, 7, 19, 20, 1, 2, 8, 15, 11, 5, 6, 14, 17, 3, 4, 12, 16, 9, 18, 13, 10, 7, 19, 20, 1, 2, 8, 15, 11, 5, 6, 14, 17, 3, 4, 12, 16, 9, 18, 13, 10, 7, 19, 20, 1, 2, 8, 15, 11, 5, 6, 14, 17, 3, 4, 12, 16, 9, 18, 13, 10, 7, 19, 20, 1, 2, 8, 15, 11, 5, 6, 14, 17, 3, 4, 12, 16, 9, 18, 13, 10, 7, 19, 20, 1, 2, 8, 15, 11, 5, 6, 14, 17, 3, 4, 12, 16, 9, 18, 13, 10, 7, 19, 20, 1, 2, 8, 15, 11, 5, 6, 14, 17, 3, 4, 12, 16, 9, 18, 13, 10, 7, 19, 20, 1, 2, 8, 15, 11, 5, 6, 14, 17, 3, 4, 12, 16, 9, 18, 13, 10, 7, 19, 20, 1, 2, 8, 15, 11, 5, 6, 14, 17, 3, 4, 12, 16, 9, 18, 13, 10, 7, 19, 20, 1, 2, 8, 15, 11, 5, 6, 14, 17, 3, 4, 12, 16, 9, 18, 13, 10, 7, 19, 20, 1, 2, 8, 15, 11, 5, 6, 14, 17, 3, 4]
bestever    1602    in generation 412
[12, 16, 9, 18, 13, 10, 7, 19, 20, 1, 15, 2, 8, 11, 5, 6, 14, 17, 3, 4, 12, 16, 9, 18, 13, 10, 7, 19, 20, 1, 15, 2, 8, 11, 5, 6, 14, 17, 3, 4, 12, 16, 9, 18, 13, 10, 7, 19, 20, 1, 15, 2, 8, 11, 5, 6, 14, 17, 3, 4, 12, 16, 9, 18, 13, 10, 7, 19, 20, 1, 15, 2, 8, 11, 5, 6, 14, 17, 3, 4, 12, 16, 9, 18, 13, 10, 7, 19, 20, 1, 15, 2, 8, 11, 5, 6, 14, 17, 3, 4, 12, 16, 9, 18, 13, 10, 7, 19, 20, 1, 15, 2, 8, 11, 5, 6, 14, 17, 3, 4, 12, 16, 9, 18, 13, 10, 7, 19, 20, 1, 15, 2, 8, 11, 5, 6, 14, 17, 3, 4, 12, 16, 9, 18, 13, 10, 7, 19, 20, 1, 15, 2, 8, 11, 5, 6, 14, 17, 3, 4, 12, 16, 9, 18, 13, 10, 7, 19, 20, 1, 15, 2, 8, 11, 5, 6, 14, 17, 3, 4, 12, 16, 9, 18, 13, 10, 7, 19, 20, 1, 15, 2, 8, 11, 5, 6, 14, 17, 3, 4]
bestever    1596    in generation 516
[12, 16, 9, 18, 13, 10, 7, 19, 20, 1, 15, 2, 8, 11, 3, 5, 6, 14, 17, 4, 12, 16, 9, 18, 13, 10, 7, 19, 20, 1, 15, 2, 8, 11, 3, 5, 6, 14, 17, 4, 12, 16, 9, 18, 13, 10, 7, 19, 20, 1, 15, 11, 2, 8, 3, 5, 6, 14, 17, 4, 12, 16, 9, 18, 13, 10, 7, 19, 20, 1, 15, 2, 8, 11, 3, 5, 6, 14, 17, 4, 12, 16, 9, 18, 13, 10, 7, 19, 20, 1, 15, 2, 8, 11, 3, 5, 6, 14, 17, 4, 12, 16, 9, 18, 13, 10, 7, 19, 20, 1, 15, 2, 8, 11, 3, 5, 6, 14, 17, 4, 12, 16, 9, 18, 13, 10, 7, 19, 20, 1, 15, 2, 8, 11, 3, 5, 6, 14, 17, 4, 12, 16, 9, 18, 13, 10, 7, 19, 20, 1, 15, 2, 8, 11, 3, 5, 6, 14, 17, 4, 12, 16, 9, 18, 13, 10, 7, 19, 20, 1, 15, 2, 8, 11, 3, 5, 6, 14, 17, 4, 9, 18, 13, 10, 7, 19, 20, 1, 15, 12, 16, 2, 8, 11, 3, 5, 6, 14, 17, 4]
bestever    1563    in generation 628
[12, 16, 9, 18, 13, 10, 7, 19, 20, 1, 15, 2, 8, 11, 3, 5, 14, 17, 4, 6, 12, 16, 9, 18, 13, 10, 7, 19, 20, 1, 15, 2, 8, 11, 3, 5, 14, 17, 4, 6, 12, 16, 9, 18, 13, 10, 7, 19, 20, 1, 15, 2, 8, 11, 3, 5, 14, 17, 4, 6, 12, 16, 9, 18, 13, 10, 7, 19, 20, 1, 15, 2, 8, 11, 3, 5, 14, 17, 4, 6, 12, 16, 9, 18, 13, 10, 7, 19, 20, 1, 15, 2, 8, 11, 3, 5, 14, 17, 4, 6, 12, 16, 9, 18, 13, 10, 7, 19, 20, 1, 15, 2, 8, 11, 3, 5, 14, 17, 4, 6, 12, 16, 9, 18, 13, 10, 7, 19, 20, 1, 15, 2, 8, 11, 3, 5, 14, 17, 4, 6, 12, 16, 9, 18, 13, 10, 7, 19, 20, 1, 15, 2, 8, 11, 3, 5, 14, 17, 4, 6, 12, 16, 9, 18, 13, 10, 7, 19, 20, 1, 15, 2, 8, 11, 3, 5, 14, 17, 4, 6, 9, 18, 13, 10, 7, 19, 20, 1, 15, 12, 16, 2, 8, 11, 3, 5, 14, 17, 4, 6]
bestever    1542    in generation 643
[12, 16, 9, 18, 13, 10, 7, 19, 20, 1, 15, 2, 8, 11, 3, 5, 14, 17, 4, 6, 12, 16, 9, 18, 13, 10, 7, 19, 20, 1, 15, 2, 8, 11, 3, 5, 14, 17, 4, 6, 12, 16, 9, 18, 13, 10, 7, 19, 20, 1, 15, 2, 8, 11, 3, 5, 14, 17, 4, 6, 12, 16, 9, 18, 13, 10, 7, 19, 20, 1, 15, 2, 8, 11, 3, 5, 14, 17, 4, 6, 12, 16, 9, 18, 13, 10, 7, 19, 20, 1, 15, 2, 8, 11, 3, 5, 14, 17, 4, 6, 12, 16, 9, 18, 13, 10, 7, 19, 20, 1, 15, 12, 16, 9, 18, 13, 10, 7, 19, 20, 1, 15, 2, 8, 11, 3, 5, 14, 17, 4, 6, 2, 8, 11, 3, 5, 14, 17, 4, 6, 12, 16, 9, 18, 13, 10, 7, 19, 20, 1, 15, 2, 8, 11, 3, 5, 14, 17, 4, 6, 12, 16, 9, 18, 13, 10, 7, 19, 20, 1, 15, 2, 8, 11, 3, 5, 14, 17, 4, 6, 12, 16, 9, 18, 13, 10, 7, 19, 20, 1, 15, 2, 8, 11, 3, 5, 14, 17, 4, 6]
bestever    1527    in generation 769
[12, 16, 9, 18, 13, 10, 7, 19, 20, 1, 15, 2, 8, 11, 3, 5, 14, 4, 17, 6, 12, 16, 9, 18, 13, 10, 7, 19, 20, 1, 15, 2, 8, 11, 3, 5, 14, 4, 17, 6, 12, 16, 9, 18, 13, 10, 7, 19, 20, 1, 15, 2, 8, 11, 3, 5, 14, 4, 17, 6, 12, 16, 9, 18, 13, 10, 7, 19, 20, 1, 15, 2, 8, 11, 3, 5, 14, 4, 17, 6, 12, 16, 9, 18, 13, 10, 7, 19, 20, 1, 15, 2, 8, 11, 3, 5, 14, 4, 17, 6, 12, 16, 9, 18, 13, 10, 7, 19, 20, 1, 15, 2, 8, 11, 3, 5, 14, 4, 17, 6, 12, 16, 9, 18, 13, 10, 7, 19, 20, 1, 15, 2, 8, 11, 3, 5, 14, 4, 17, 6, 12, 16, 9, 18, 13, 10, 7, 19, 20, 1, 15, 2, 8, 11, 3, 5, 14, 4, 17, 6, 12, 16, 9, 18, 13, 10, 7, 19, 20, 1, 15, 2, 8, 11, 3, 5, 14, 4, 17, 6, 12, 16, 9, 18, 13, 10, 7, 19, 20, 1, 15, 2, 8, 11, 3, 5, 14, 4, 17, 6]
bestever    1526    in generation 872
[12, 16, 9, 18, 13, 10, 7, 19, 20, 1, 15, 2, 8, 11, 3, 4, 5, 14, 17, 6, 12, 16, 9, 18, 13, 10, 7, 19, 20, 1, 15, 2, 8, 11, 3, 4, 5, 14, 17, 6, 12, 16, 9, 18, 13, 10, 7, 19, 20, 1, 15, 2, 8, 11, 3, 4, 5, 14, 17, 6, 12, 16, 9, 18, 13, 10, 7, 19, 20, 1, 15, 2, 8, 11, 3, 4, 5, 14, 17, 6, 12, 16, 9, 18, 13, 10, 7, 19, 20, 1, 15, 2, 8, 11, 3, 4, 5, 14, 17, 6, 12, 16, 9, 18, 13, 10, 7, 19, 20, 1, 15, 2, 8, 11, 3, 4, 5, 14, 17, 6, 12, 16, 9, 18, 13, 10, 7, 19, 20, 1, 15, 2, 8, 11, 3, 4, 5, 14, 17, 6, 12, 16, 9, 18, 13, 10, 7, 19, 20, 1, 15, 2, 8, 11, 3, 4, 5, 14, 17, 6, 12, 16, 9, 18, 13, 10, 7, 19, 20, 1, 15, 2, 8, 11, 3, 4, 5, 14, 17, 6, 12, 16, 9, 18, 13, 10, 7, 19, 20, 1, 15, 2, 8, 11, 3, 4, 5, 14, 17, 6]
bestever    1523    in generation 982
[12, 16, 9, 18, 13, 10, 7, 20, 19, 1, 15, 2, 8, 11, 3, 4, 5, 14, 17, 6, 12, 16, 9, 18, 13, 10, 7, 20, 19, 1, 15, 2, 8, 11, 3, 4, 5, 14, 17, 6, 12, 16, 9, 18, 13, 10, 7, 20, 19, 1, 15, 2, 8, 11, 3, 4, 5, 14, 17, 6, 12, 16, 9, 18, 13, 10, 7, 20, 19, 1, 15, 2, 8, 11, 3, 4, 5, 14, 17, 6, 12, 16, 9, 18, 13, 10, 7, 20, 19, 1, 15, 2, 8, 11, 3, 4, 5, 14, 17, 6, 12, 16, 9, 18, 13, 10, 7, 20, 19, 1, 15, 2, 8, 11, 3, 4, 5, 14, 17, 6, 12, 16, 9, 18, 13, 10, 7, 20, 19, 1, 15, 2, 8, 11, 3, 4, 5, 14, 17, 6, 12, 16, 9, 18, 13, 10, 7, 20, 19, 1, 15, 2, 8, 11, 3, 4, 5, 14, 17, 6, 12, 16, 9, 18, 13, 10, 7, 20, 19, 1, 15, 2, 8, 11, 3, 4, 5, 14, 17, 6, 12, 16, 9, 18, 13, 10, 7, 20, 19, 1, 15, 2, 8, 11, 3, 4, 5, 14, 17, 6]
bestever    1520    in generation 1090
[16, 12, 9, 18, 13, 10, 7, 20, 19, 1, 15, 2, 8, 11, 3, 4, 5, 14, 17, 6, 16, 12, 9, 18, 13, 10, 7, 20, 19, 1, 15, 2, 8, 11, 3, 4, 5, 14, 17, 6, 16, 12, 9, 18, 13, 10, 7, 20, 19, 1, 15, 2, 8, 11, 3, 4, 5, 14, 17, 6, 16, 12, 9, 18, 13, 10, 7, 20, 19, 1, 15, 2, 8, 11, 3, 4, 5, 14, 17, 6, 16, 12, 9, 18, 13, 10, 7, 20, 19, 1, 15, 2, 8, 11, 3, 4, 5, 14, 17, 6, 16, 12, 9, 18, 13, 10, 7, 20, 19, 1, 15, 2, 8, 11, 3, 4, 5, 14, 17, 6, 16, 12, 9, 18, 13, 10, 7, 20, 19, 1, 15, 2, 8, 11, 3, 4, 5, 14, 17, 6, 16, 12, 9, 18, 13, 10, 7, 20, 19, 1, 15, 2, 8, 11, 3, 4, 5, 14, 17, 6, 16, 12, 9, 18, 13, 10, 7, 20, 19, 1, 15, 2, 8, 11, 3, 4, 5, 14, 17, 6, 16, 12, 9, 18, 13, 10, 7, 20, 19, 1, 15, 2, 8, 11, 3, 4, 5, 14, 17, 6]
bestever    1515    in generation 1280
[16, 12, 9, 18, 13, 10, 7, 20, 2, 19, 1, 11, 15, 8, 3, 5, 4, 14, 17, 6, 16, 12, 9, 18, 13, 10, 7, 20, 2, 19, 1, 11, 15, 8, 3, 5, 4, 14, 17, 6, 16, 12, 9, 18, 13, 10, 7, 20, 2, 19, 1, 11, 15, 8, 3, 5, 4, 14, 17, 6, 16, 12, 9, 18, 13, 10, 7, 20, 2, 19, 1, 11, 15, 8, 3, 5, 4, 14, 17, 6, 16, 12, 9, 18, 13, 10, 7, 20, 2, 19, 1, 11, 15, 8, 3, 5, 4, 14, 17, 6, 16, 12, 9, 18, 13, 10, 7, 20, 2, 19, 1, 11, 15, 8, 3, 5, 4, 14, 17, 6, 16, 12, 9, 18, 13, 10, 7, 20, 2, 19, 1, 11, 15, 8, 3, 5, 4, 14, 17, 6, 16, 12, 9, 18, 13, 10, 7, 20, 2, 19, 1, 11, 15, 8, 3, 5, 4, 14, 17, 6, 16, 12, 9, 18, 13, 10, 7, 20, 2, 19, 1, 11, 15, 8, 3, 5, 4, 14, 17, 6, 16, 12, 9, 18, 13, 10, 7, 20, 2, 19, 1, 11, 15, 8, 3, 4, 5, 14, 17, 6]
bestever    1513    in generation 1393
[16, 12, 9, 18, 13, 10, 2, 7, 20, 19, 1, 11, 15, 8, 3, 5, 4, 14, 17, 6, 16, 12, 9, 18, 13, 10, 2, 7, 20, 19, 1, 11, 15, 8, 3, 5, 4, 14, 17, 6, 16, 12, 9, 18, 13, 10, 2, 7, 20, 19, 1, 11, 15, 8, 3, 5, 4, 14, 17, 6, 16, 12, 9, 18, 13, 10, 2, 7, 20, 19, 1, 11, 15, 8, 3, 5, 4, 14, 17, 6, 16, 12, 9, 18, 13, 10, 2, 7, 20, 19, 1, 11, 15, 8, 3, 5, 4, 14, 17, 6, 16, 12, 9, 18, 13, 10, 2, 7, 20, 19, 1, 11, 15, 8, 3, 5, 4, 14, 17, 6, 16, 12, 9, 18, 13, 10, 2, 7, 20, 19, 1, 11, 15, 8, 3, 5, 4, 14, 17, 6, 16, 12, 9, 18, 13, 10, 2, 7, 20, 19, 1, 11, 15, 8, 3, 5, 4, 14, 17, 6, 16, 12, 9, 18, 13, 10, 2, 7, 20, 19, 1, 11, 15, 8, 3, 5, 4, 14, 17, 6, 16, 12, 9, 18, 13, 10, 2, 7, 20, 19, 1, 11, 15, 8, 3, 4, 5, 14, 17, 6]
bestever    1506    in generation 1560
[16, 12, 9, 18, 13, 10, 7, 2, 20, 19, 1, 11, 15, 8, 3, 4, 5, 14, 17, 6, 16, 12, 9, 18, 13, 10, 7, 2, 20, 19, 1, 11, 15, 8, 3, 4, 5, 14, 17, 6, 16, 12, 9, 18, 13, 10, 7, 2, 20, 19, 1, 11, 15, 8, 3, 4, 5, 14, 17, 6, 16, 12, 9, 18, 13, 10, 7, 2, 20, 19, 1, 11, 15, 8, 3, 4, 5, 14, 17, 6, 16, 12, 9, 18, 13, 10, 7, 2, 20, 19, 1, 11, 15, 8, 3, 4, 5, 14, 17, 6, 16, 12, 9, 18, 13, 10, 7, 2, 20, 19, 1, 11, 15, 8, 3, 4, 5, 14, 17, 6, 16, 12, 9, 18, 13, 10, 7, 2, 20, 19, 1, 11, 15, 8, 3, 4, 5, 14, 17, 6, 16, 12, 9, 18, 13, 10, 7, 2, 20, 19, 1, 11, 15, 8, 3, 4, 5, 14, 17, 6, 16, 12, 9, 18, 13, 10, 7, 2, 20, 19, 1, 11, 15, 8, 3, 4, 5, 14, 17, 6, 16, 12, 9, 18, 13, 10, 7, 2, 20, 19, 1, 11, 15, 8, 3, 4, 5, 14, 17, 6]
bestever    1501    in generation 2888
[2, 16, 12, 9, 18, 13, 10, 7, 19, 1, 11, 20, 15, 8, 3, 4, 5, 14, 17, 6, 2, 16, 12, 9, 18, 13, 10, 7, 19, 1, 11, 20, 15, 8, 3, 4, 5, 14, 17, 6, 2, 16, 12, 9, 18, 13, 10, 7, 19, 1, 11, 20, 15, 8, 3, 4, 5, 14, 17, 6, 2, 16, 12, 9, 18, 13, 10, 7, 19, 1, 11, 20, 15, 8, 3, 4, 5, 14, 17, 6, 2, 16, 12, 9, 18, 13, 10, 7, 19, 1, 11, 20, 15, 8, 3, 4, 5, 14, 17, 6, 2, 16, 12, 9, 18, 13, 10, 7, 19, 1, 11, 20, 15, 8, 3, 4, 5, 14, 17, 6, 2, 16, 12, 9, 18, 13, 10, 7, 19, 1, 11, 20, 15, 8, 3, 4, 5, 14, 17, 6, 2, 16, 12, 9, 18, 13, 10, 7, 19, 1, 11, 20, 15, 8, 3, 4, 5, 14, 17, 6, 2, 16, 12, 9, 18, 13, 10, 7, 19, 1, 11, 20, 15, 8, 3, 4, 5, 14, 17, 6, 2, 16, 12, 9, 18, 13, 10, 7, 19, 1, 11, 20, 15, 8, 3, 4, 5, 14, 17, 6]
bestever    1495    in generation 6008
[2, 16, 12, 9, 18, 13, 10, 7, 19, 1, 11, 20, 15, 4, 3, 5, 14, 8, 6, 17, 2, 16, 12, 9, 18, 13, 10, 7, 19, 1, 11, 20, 15, 4, 3, 5, 14, 8, 6, 17, 2, 16, 12, 9, 18, 13, 10, 7, 19, 1, 11, 20, 15, 4, 3, 5, 14, 8, 6, 17, 2, 16, 12, 9, 18, 13, 10, 7, 19, 1, 11, 20, 15, 4, 3, 5, 14, 8, 6, 17, 2, 16, 12, 9, 18, 13, 10, 7, 19, 1, 11, 20, 15, 4, 3, 5, 14, 8, 6, 17, 2, 16, 12, 9, 18, 13, 10, 7, 19, 1, 11, 20, 15, 4, 3, 5, 14, 8, 6, 17, 2, 16, 12, 9, 18, 13, 10, 7, 19, 1, 11, 20, 15, 4, 3, 5, 14, 8, 6, 17, 2, 16, 12, 9, 18, 13, 10, 7, 19, 1, 11, 20, 15, 4, 3, 5, 14, 8, 6, 17, 2, 16, 12, 9, 18, 13, 10, 7, 19, 1, 11, 20, 15, 4, 3, 5, 14, 8, 6, 17, 2, 16, 12, 9, 18, 13, 10, 7, 19, 1, 11, 20, 15, 4, 3, 5, 14, 8, 6, 17]
